&CONTROL
  prefix         = "silicon"
  pseudo_dir = '~/download/SSSP_precision_pseudos/',
  outdir='/scratch/anonymous/tempdir_neb_si_diffuse/'
/
&system
    ibrav= 1, celldm(1) = 20.6713816318, nat=63, ntyp=1,
    ecutwfc=40,
    ecutrho=160,
/
&ELECTRONS
  mixing_beta = 0.7
  conv_thr =  1.0d-8
  electron_maxstep=120
/
&IONS
/
ATOMIC_SPECIES
 Si 28.0855   Si.pbe-n-rrkjus_psl.1.0.0.UPF
K_POINTS automatic
4 4 4 1 1 1
ATOMIC_POSITIONS (alat)
Si       0.000000017  -0.000000033   0.000000024
Si       0.500000039  -0.000000011   0.000000018
Si      -0.000000045   0.500000026  -0.000000065
Si       0.500000042   0.500000031  -0.000000019
Si       0.250372509   0.250372481  -0.000140132
Si       0.749627544   0.250372520   0.000140064
Si       0.250372539   0.749627504   0.000140111
Si       0.749627511   0.749627539  -0.000140086
Si       0.125050773   0.125050704   0.125050717
Si       0.625071058   0.126079823   0.126079823
Si       0.126079730   0.625071015   0.126079735
Si       0.624821191   0.624821142   0.125551716
Si       0.375178883   0.375178860   0.125551665
Si       0.873920262   0.374929003   0.126079748
Si       0.374929044   0.873920172   0.126079846
Si       0.874949282   0.874949252   0.125050762
Si       0.250372517  -0.000140123   0.250372514
Si       0.749627527   0.000140068   0.250372524
Si       0.253281268   0.500311363   0.253281332
Si       0.746718701   0.499688599   0.253281397
Si       0.500311474   0.253281507   0.253281485
Si      -0.000140094   0.250372452   0.250372449
Si       0.499688610   0.746718544   0.253281511
Si       0.000140092   0.749627490   0.250372522
Si       0.375178898   0.125551694   0.375178862
Si       0.873920228   0.126079782   0.374928999
Si       0.382848008   0.617151757   0.382848265
Si       0.874448331   0.624821162   0.375178911
Si       0.617151792   0.382848473   0.382848420
Si       0.125551611   0.375178814   0.375178867
Si       0.624821222   0.874448265   0.375178947
Si       0.126079744   0.873920234   0.374929011
Si      -0.000000045  -0.000000011   0.500000013
Si       0.500000048   0.000000004   0.500000027
Si      -0.000000006   0.499999998   0.500000039
Si       0.253281326   0.253281335   0.500311390
Si       0.746718672   0.253281458   0.499688575
Si       0.253281291   0.746718668   0.499688664
Si       0.746718575   0.746718491   0.500311528
Si       0.126079748   0.126079746   0.625071033
Si       0.624821212   0.125551743   0.624821125
Si       0.125551621   0.624821160   0.624821211
Si       0.617151398   0.617151259   0.617151215
Si       0.382848093   0.382848272   0.617151747
Si       0.874448310   0.375178895   0.624821204
Si       0.375178904   0.874448303   0.624821182
Si       0.873920199   0.873920195   0.625071024
Si       0.250372530   0.000140122   0.749627532
Si       0.749627531  -0.000140088   0.749627514
Si       0.253281342   0.499688632   0.746718663
Si       0.746718544   0.500311565   0.746718465
Si       0.499688650   0.253281497   0.746718553
Si       0.000140095   0.250372493   0.749627524
Si       0.500311539   0.746718436   0.746718413
Si      -0.000140109   0.749627559   0.749627561
Si       0.374929064   0.126079822   0.873920190
Si       0.874949300   0.125050713   0.874949284
Si       0.375178913   0.624821183   0.874448270
Si       0.873920165   0.625071046   0.873920183
Si       0.624821234   0.375178955   0.874448254
Si       0.126079761   0.374928989   0.873920231
Si       0.625071006   0.873920166   0.873920152
Si       0.125050780   0.874949280   0.874949288
