&CONTROL
  prefix         = "silicon"
  pseudo_dir = '~/download/SSSP_precision_pseudos/',
  outdir='/scratch/anonymous/tempdir_neb_si_diffuse/'
/
&system
    ibrav= 1, celldm(1) = 20.6713816318, nat=63, ntyp=1,
    ecutwfc=40,
    ecutrho=160,
/
&ELECTRONS
  mixing_beta = 0.7
  conv_thr =  1.0d-8
  electron_maxstep=120
/
&IONS
/
ATOMIC_SPECIES
 Si 28.0855   Si.pbe-n-rrkjus_psl.1.0.0.UPF
K_POINTS automatic
4 4 4 1 1 1
ATOMIC_POSITIONS (alat)
Si       0.000038912   0.000038872  -0.000038929
Si       0.500069939   0.001087936  -0.001087977
Si       0.001087959   0.500069966  -0.001087968
Si       0.499789281   0.499789315  -0.000484205
Si       0.250185220   0.250185212  -0.000545377
Si       0.748939882   0.249971952  -0.001097504
Si       0.249971983   0.748939892  -0.001097534
Si       0.749961086   0.749961112  -0.000048476
Si       0.125392074   0.125392035   0.125153081
Si       0.624652321   0.125402450   0.124857284
Si       0.125402487   0.624652361   0.124857271
Si       0.624638294   0.624638333   0.125159867
Si       0.374962489   0.374962494   0.125047971
Si       0.875015093   0.374995300   0.124984889
Si       0.374995296   0.875015078   0.124984881
Si       0.874986074   0.874986075   0.125013930
Si       0.249971968   0.001097456   0.251060115
Si       0.749961069   0.000048448   0.250038925
Si       0.250157189   0.499794176   0.250555807
Si       0.748950246   0.500036932   0.251049751
Si       0.499794149   0.250157175   0.250555812
Si       0.001097483   0.249971935   0.251060108
Si       0.500036897   0.748950258   0.251049767
Si       0.000048480   0.749961099   0.250038915
Si       0.374684663   0.128267851   0.378331319
Si       0.875142693   0.125402449   0.375347698
Si       0.375270141   0.621740522   0.378259472
Si       0.874840136   0.624638321   0.375361725
Si       0.621740533   0.375270121   0.378259455
Si       0.128267839   0.374684702   0.378331303
Si       0.624638258   0.874840154   0.375361743
Si       0.125402502   0.875142671   0.375347709
Si       0.001087957   0.001087921   0.499930072
Si       0.499789249   0.000484245   0.500210758
Si       0.000484221   0.499789294   0.500210743
Si       0.257851924   0.257851948   0.507865526
Si       0.749444156   0.250157182   0.500205865
Si       0.250157209   0.749444136   0.500205881
Si       0.748950214   0.748950248   0.499963120
Si       0.128287002   0.128286998   0.624716843
Si       0.621668631   0.128267889   0.625315361
Si       0.128267899   0.621668626   0.625315363
Si       0.621740502   0.621740514   0.624729870
Si       0.492298516   0.492298498   0.507701464
Si       0.874952011   0.374962488   0.625037523
Si       0.374962482   0.874952015   0.625037525
Si       0.875015089   0.875015078   0.625004738
Si       0.250185250   0.000545406   0.749814760
Si       0.748939858   0.001097490   0.750028040
Si       0.257852003   0.492134375   0.742148065
Si       0.749444180   0.499794174   0.749842817
Si       0.492134411   0.257852010   0.742148088
Si       0.000545387   0.250185223   0.749814775
Si       0.499794128   0.749444157   0.749842810
Si       0.001097533   0.748939882   0.750028033
Si       0.375283155   0.128287010   0.871713001
Si       0.874846916   0.125392059   0.874607911
Si       0.374684674   0.621668656   0.871732140
Si       0.875142714   0.624652359   0.874597518
Si       0.621668679   0.374684719   0.871732168
Si       0.128287004   0.375283139   0.871713004
Si       0.624652301   0.875142685   0.874597504
Si       0.125392111   0.874846927   0.874607889
