&control
    calculation = 'bands'
    restart_mode='from_scratch'
    prefix = 'si'
    outdir = './outdir'
    pseudo_dir = '/home/anonymous/quantumEspresso_2019/SSSP_precision_pseudos'
/
&system
    ibrav=2, celldm(1) =10.410909236, 
    nat=2, ntyp=1,
    ecutwfc=40
    ecutrho=320
    nbnd=8
/
&electrons
    conv_thr=1e-8
/
ATOMIC_SPECIES
 Si  28.0855  Si.pbe-n-rrkjus_psl.1.0.0.UPF

ATOMIC_POSITIONS (alat)
 Si 0.00 0.00 0.00
 Si 0.25 0.25 0.25
K_POINTS {crystal_b}
5
  0.0000 0.5000 0.0000 20 !L
  0.0000 0.0000 0.0000 30 !Gamma
  -0.500 0.0000 -0.500 10 !X
  -0.375 0.2500 -0.375 30 !U
  0.0000 0.0000 0.0000 20 !Gamma
