&bands
  outdir='./outdir/'
  prefix='si'
  filband='si.bands.dat'
/
