 &CONTROL
    calculation = 'scf'
    prefix = 'C6H6'
    outdir = './outdir'
    pseudo_dir = '/home/anonymous/quantumEspresso_2019/nc-sr-04_pbe_stringent_upf'
 /
 &SYSTEM
    ibrav = 6,
    celldm(1) = 32.0,
    celldm(3) = 0.83,
    nat = 12,
    ntyp = 2,
    ecutwfc = 40,
    ecutrho = 320
 /
 &ELECTRONS
    conv_thr =  1.0d-10
 /

ATOMIC_SPECIES
 C  12.0107  C.upf
 H  1.00784  H.upf

ATOMIC_POSITIONS angstrom
C        5.634905178   6.321969786   5.000000000
C        6.847104104   8.420378382   5.000000000
C        8.059072877   7.720810323   5.000000000
C        8.058982717   6.321775745   5.000000000
C        6.846891976   5.622390903   5.000000000
C        5.635014493   7.721010867   5.000000000
H        6.847224737   9.524129211   5.000000000
H        9.014965040   8.272588883   5.000000000
H        9.014832673   5.769918129   5.000000000
H        6.846819373   4.518642564   5.000000000
H        4.678986374   5.770245379   5.000000000
H        4.679200457   8.272939830   5.000000000

K_POINTS gamma
