&control
    calculation = 'md'
    restart_mode='from_scratch'
    prefix = 'h2o'
    outdir='./outdir'
    pseudo_dir = '/home/anonymous/quantumEspresso_2019/SSSP_precision_pseudos'
    dt=20,
    nstep=100,
/
&system
    ibrav=1, celldm(1) =15, nat=3, ntyp=2,
    ecutwfc=25, nosym=.true.
/
&electrons
    conv_thr=1e-8
/
&ions
    pot_extrapolation='second-order'
    wfc_extrapolation='second-order'
    ion_temperature='initial'
    tempw=300
/
ATOMIC_SPECIES
 H  1.00784  H_ONCV_PBE-1.0.oncvpsp.upf
 O  15.999   O.pbe-n-kjpaw_psl.0.1.UPF
ATOMIC_POSITIONS (angstrom)
O        5.000425817   4.781574242   4.999840589
H        4.999764264   5.408907510   5.779839929
H        4.999809919   5.409518248   4.220319481
K_POINTS (automatic)
  1 1 1 0 0 0
