 &control
    calculation = 'scf',
    restart_mode='from_scratch',
    prefix='si',
    outdir='./outdir'
    pseudo_dir='/home/anonymous/quantumEspresso_2019/SSSP_precision_pseudos'
    tstress = .true.
    tprnfor = .true.
 /
 &system
    ibrav= 2, celldm(1) =10.3356908159, nat=2, ntyp=1,
    ecutwfc=40,
    ecutrho=320,
 /
 &electrons
    mixing_beta = 0.7
    conv_thr =  1.0d-10
 /
ATOMIC_SPECIES
 Si 28.0855 Si.pbe-n-rrkjus_psl.1.0.0.UPF

ATOMIC_POSITIONS (alat)
Si 0.00 0.00 0.00
Si 0.25 0.25 0.25

K_POINTS automatic
10 10 10 1 1 1
