&control
    calculation = 'scf'
    restart_mode='from_scratch'
    prefix = 'si'
    outdir = './outdir'
    pseudo_dir = '/home/anonymous/quantumEspresso_2019/SSSP_precision_pseudos'
/
&system
    ibrav=2, celldm(1) =10.410909236, 
    nat=2, ntyp=1,
    ecutwfc=50
/
&electrons
    conv_thr=1e-8
/
ATOMIC_SPECIES
 Si  28.0855  Si.pbe-n-rrkjus_psl.1.0.0.UPF

ATOMIC_POSITIONS (alat)
 Si 0.00 0.00 0.00
 Si 0.25 0.25 0.25
K_POINTS (automatic)
  8 8 8 0 0 0
