&DOS
    prefix='si'
    outdir='./outdir/'
    fildos='si.dos.dat'
    emin=-9.0
    emax=16.0
/
