&inputpp 
  prefix = 'h2o'      
  fileout = 'h2o.axsf'
  lcharge = .FALSE.        
  lforces = .FALSE.        
  ldynamics = .t.      
  nframes = 100             
  nsp = 2                 
  nat(1) = 1 
  nat(2) = 2 
  species(1) = 16
  species(2) = 1
/
