&input
  fildyn = 'si.dyn'
  zasr = 'simple'
  flfrc = 'si.k444.fc'
/
