&bands
outdir = './outdir'
prefix = 'graphene'
filband = 'graphene.bands.dat'
/
