&DOS
    prefix='al'
    outdir='./outdir/'
    fildos='al.dos.dat'
    emin=-15
    emax=35
/
