 &control
    calculation = 'relax',
    restart_mode='from_scratch',
    prefix='si',
    pseudo_dir = '~/download/SSSP_precision_pseudos',
    outdir='/scratch/anonymous/outdir_Si_supercell'
    etot_conv_thr = 1e-6
    forc_conv_thr = 1e-5
 /
 &system
    ibrav= 1, celldm(1) = 20.6713816318, nat=63, ntyp=1,
    ecutwfc=40,
    ecutrho=160,
    nosym = .true.
 /
 &electrons
    mixing_beta = 0.7
    conv_thr =  1.0d-8
 /
 &ions
    ion_dynamics="bfgs",
 /
ATOMIC_SPECIES
 Si 28.0855 Si.pbe-n-rrkjus_psl.1.0.0.UPF

ATOMIC_POSITIONS (alat)
Si 0.000 0.000 0.000
Si 0.500 0.000 0.000
Si 0.000 0.500 0.000
Si 0.500 0.500 0.000
Si 0.250 0.250 0.000
Si 0.750 0.250 0.000
Si 0.250 0.750 0.000
Si 0.750 0.750 0.000
Si 0.125 0.125 0.125
Si 0.625 0.125 0.125
Si 0.125 0.625 0.125
Si 0.625 0.625 0.125
Si 0.375 0.375 0.125
Si 0.875 0.375 0.125
Si 0.375 0.875 0.125
Si 0.875 0.875 0.125
Si 0.250 0.000 0.250
Si 0.750 0.000 0.250
Si 0.250 0.500 0.250
Si 0.750 0.500 0.250
Si 0.500 0.250 0.250
Si 0.000 0.250 0.250
Si 0.500 0.750 0.250
Si 0.000 0.750 0.250
Si 0.375 0.125 0.375
Si 0.875 0.125 0.375
Si 0.375 0.625 0.375
Si 0.875 0.625 0.375
Si 0.625 0.375 0.375
Si 0.125 0.375 0.375
Si 0.625 0.875 0.375
Si 0.125 0.875 0.375
Si 0.000 0.000 0.500
Si 0.500 0.000 0.500
Si 0.000 0.500 0.500

Si 0.250 0.250 0.500
Si 0.750 0.250 0.500
Si 0.250 0.750 0.500
Si 0.750 0.750 0.500
Si 0.125 0.125 0.625
Si 0.625 0.125 0.625
Si 0.125 0.625 0.625
Si 0.625 0.625 0.625

Si 0.500 0.500 0.500

Si 0.875 0.375 0.625
Si 0.375 0.875 0.625
Si 0.875 0.875 0.625
Si 0.250 0.000 0.750
Si 0.750 0.000 0.750
Si 0.250 0.500 0.750
Si 0.750 0.500 0.750
Si 0.500 0.250 0.750
Si 0.000 0.250 0.750
Si 0.500 0.750 0.750
Si 0.000 0.750 0.750
Si 0.375 0.125 0.875
Si 0.875 0.125 0.875
Si 0.375 0.625 0.875
Si 0.875 0.625 0.875
Si 0.625 0.375 0.875
Si 0.125 0.375 0.875
Si 0.625 0.875 0.875
Si 0.125 0.875 0.875

K_POINTS automatic
4 4 4 1 1 1
